SDVRP instances/custom_instances/p02_27_splitx10_0.vrp
NAME:p02_27_splitx10_
BEST_KNOWN: 0
COMMENT: 0
DIMENSION: 370
CAPACITY: 1400
EDGE_WEIGHT_FORMAT: FUNCTION
EDGE_WEIGHT_TYPE: EXACT_2D
NODE_COORD_SECTION
1 0.00000 0.00000
2 19 26
3 19 26
4 19 26
5 19 26
6 19 26
7 19 26
8 10 27
9 10 27
10 10 27
11 10 27
12 10 27
13 10 27
14 10 27
15 46 27
16 46 27
17 46 27
18 46 27
19 -45 7
20 -45 7
21 -45 7
22 -45 7
23 -45 7
24 -41 -27
25 -41 -27
26 -41 -27
27 -41 -27
28 -41 -27
29 -41 -27
30 13 36
31 -25 42
32 -25 42
33 -25 42
34 -25 42
35 6 16
36 6 16
37 6 16
38 6 16
39 6 16
40 6 16
41 6 16
42 -49 -47
43 -49 -47
44 -49 -47
45 -49 -47
46 -49 -47
47 -49 -47
48 -49 -47
49 -49 -47
50 46 -32
51 46 -32
52 -12 49
53 -12 49
54 -12 49
55 -12 49
56 19 -1
57 19 -1
58 19 -1
59 19 -1
60 19 -1
61 19 -1
62 19 -1
63 -21 7
64 -21 7
65 -21 7
66 -21 7
67 -21 7
68 -21 7
69 -21 7
70 -31 -19
71 -31 -19
72 -31 -19
73 -31 -19
74 -31 -19
75 -12 -15
76 -12 -15
77 -12 -15
78 -12 -15
79 -12 -15
80 19 -32
81 19 -32
82 19 -32
83 19 -32
84 19 -32
85 -26 -6
86 -26 -6
87 -26 -6
88 -26 -6
89 -26 -6
90 -44 16
91 -44 16
92 -44 16
93 -44 16
94 3 33
95 3 33
96 3 33
97 3 33
98 -9 -1
99 -9 -1
100 -4 -36
101 -4 -36
102 -4 -36
103 -4 -36
104 -4 -36
105 -4 -36
106 -4 -36
107 -13 -48
108 -13 -48
109 -13 -48
110 -13 -48
111 -13 -48
112 -13 -48
113 21 43
114 21 43
115 21 43
116 21 43
117 21 43
118 21 43
119 21 43
120 21 43
121 5 30
122 5 30
123 5 30
124 31 20
125 31 20
126 31 20
127 31 20
128 31 20
129 31 20
130 31 20
131 -33 -5
132 -33 -5
133 -48 -12
134 -48 -12
135 -48 -12
136 -48 -12
137 -48 -12
138 -48 -12
139 38 26
140 38 26
141 38 26
142 38 26
143 38 26
144 -49 -43
145 -49 -43
146 -49 -43
147 -49 -43
148 -49 -43
149 13 9
150 13 9
151 13 9
152 13 9
153 13 9
154 13 9
155 -37 2
156 -37 2
157 -37 2
158 -37 2
159 4 -42
160 4 -42
161 4 -42
162 4 -42
163 4 -42
164 22 -24
165 22 -24
166 22 -24
167 22 -24
168 22 -24
169 49 36
170 49 36
171 49 36
172 49 36
173 49 36
174 28 -42
175 28 -42
176 28 -42
177 28 -42
178 28 -42
179 -8 25
180 -8 25
181 -8 25
182 2 23
183 2 23
184 9 28
185 9 28
186 9 28
187 9 28
188 9 28
189 9 28
190 42 10
191 42 10
192 42 10
193 42 10
194 42 10
195 42 10
196 42 10
197 -45 -36
198 -45 -36
199 -45 -36
200 -45 -36
201 -1 41
202 -1 41
203 15 19
204 15 19
205 15 19
206 21 43
207 21 43
208 21 43
209 21 43
210 21 43
211 21 43
212 21 43
213 0 25
214 0 25
215 0 25
216 0 25
217 0 25
218 49 19
219 49 19
220 13 29
221 13 29
222 13 29
223 13 29
224 13 29
225 13 29
226 13 29
227 43 50
228 43 50
229 43 50
230 43 50
231 43 50
232 42 -4
233 42 -4
234 42 -4
235 42 -4
236 42 -4
237 42 -4
238 42 -4
239 16 5
240 16 5
241 16 5
242 16 5
243 16 5
244 16 5
245 16 5
246 -21 -39
247 -21 -39
248 -21 -39
249 -21 -39
250 -21 -39
251 16 36
252 16 36
253 16 36
254 16 36
255 -41 -28
256 -41 -28
257 -41 -28
258 -41 -28
259 -41 -28
260 7 42
261 7 42
262 7 42
263 7 42
264 7 42
265 7 42
266 7 42
267 -22 9
268 -22 9
269 -22 9
270 -13 -14
271 -13 -14
272 -13 -14
273 -13 -14
274 -13 -14
275 -31 25
276 -31 25
277 -31 25
278 -31 25
279 -34 -36
280 -34 -36
281 -34 -36
282 -34 -36
283 -34 -36
284 1 40
285 1 40
286 1 40
287 32 47
288 32 47
289 32 47
290 32 47
291 32 47
292 -14 -38
293 -14 -38
294 -14 -38
295 -14 -38
296 -14 -38
297 -45 -22
298 -45 -22
299 -45 -22
300 -45 -22
301 -45 -22
302 -45 -22
303 -9 -47
304 -9 -47
305 -9 -47
306 -9 -47
307 34 11
308 34 11
309 34 11
310 34 11
311 34 11
312 34 11
313 34 11
314 34 11
315 49 16
316 49 16
317 49 16
318 49 16
319 19 -11
320 19 -11
321 19 -11
322 19 -11
323 19 -11
324 21 -19
325 21 -19
326 21 -19
327 21 -19
328 21 -19
329 21 -19
330 2 -6
331 2 -6
332 2 -6
333 2 -6
334 2 -6
335 33 17
336 33 17
337 33 17
338 33 17
339 33 17
340 33 17
341 50 18
342 50 18
343 50 18
344 50 18
345 50 18
346 31 25
347 31 25
348 31 25
349 -42 39
350 -42 39
351 -42 39
352 -4 -40
353 -38 -26
354 -38 -26
355 -38 -26
356 -38 -26
357 -38 -26
358 -38 -26
359 -25 35
360 -25 35
361 -25 35
362 -25 35
363 -25 35
364 -25 35
365 -25 35
366 29 -41
367 29 -41
368 29 -41
369 29 -41
370 29 -41
DEMAND_SECTION
1 0
2 280
3 280
4 14
5 14
6 14
7 8
8 280
9 140
10 14
11 14
12 14
13 14
14 4
15 140
16 70
17 14
18 6
19 140
20 70
21 14
22 14
23 12
24 280
25 280
26 70
27 14
28 14
29 12
30 280
31 280
32 14
33 14
34 12
35 280
36 280
37 70
38 14
39 14
40 14
41 8
42 280
43 280
44 70
45 14
46 14
47 14
48 14
49 4
50 280
51 70
52 140
53 14
54 14
55 2
56 280
57 140
58 70
59 14
60 14
61 14
62 8
63 280
64 140
65 14
66 14
67 14
68 14
69 4
70 280
71 280
72 70
73 14
74 6
75 280
76 70
77 14
78 14
79 2
80 140
81 14
82 14
83 14
84 8
85 280
86 140
87 14
88 14
89 12
90 140
91 70
92 14
93 6
94 280
95 140
96 14
97 6
98 140
99 70
100 280
101 280
102 70
103 14
104 14
105 14
106 8
107 280
108 280
109 70
110 14
111 14
112 12
113 280
114 280
115 70
116 14
117 14
118 14
119 14
120 4
121 280
122 280
123 140
124 280
125 70
126 14
127 14
128 14
129 14
130 4
131 140
132 70
133 140
134 70
135 14
136 14
137 14
138 8
139 280
140 280
141 14
142 14
143 2
144 280
145 70
146 14
147 14
148 2
149 280
150 140
151 70
152 14
153 14
154 12
155 280
156 70
157 14
158 6
159 280
160 280
161 70
162 14
163 6
164 140
165 70
166 14
167 14
168 12
169 280
170 280
171 70
172 14
173 6
174 280
175 14
176 14
177 14
178 8
179 280
180 14
181 6
182 280
183 70
184 140
185 70
186 14
187 14
188 14
189 8
190 140
191 70
192 14
193 14
194 14
195 14
196 4
197 280
198 280
199 14
200 6
201 280
202 10
203 140
204 70
205 10
206 280
207 140
208 70
209 14
210 14
211 14
212 8
213 140
214 70
215 14
216 14
217 2
218 280
219 70
220 280
221 280
222 14
223 14
224 14
225 14
226 4
227 140
228 70
229 14
230 14
231 12
232 280
233 70
234 14
235 14
236 14
237 14
238 4
239 140
240 70
241 14
242 14
243 14
244 14
245 4
246 280
247 70
248 14
249 14
250 12
251 280
252 280
253 14
254 6
255 280
256 280
257 14
258 14
259 2
260 280
261 280
262 70
263 14
264 14
265 14
266 8
267 280
268 140
269 10
270 280
271 70
272 14
273 14
274 2
275 280
276 14
277 14
278 12
279 280
280 14
281 14
282 14
283 8
284 280
285 70
286 10
287 140
288 14
289 14
290 14
291 8
292 140
293 70
294 14
295 14
296 2
297 280
298 280
299 14
300 14
301 14
302 8
303 280
304 140
305 14
306 6
307 280
308 280
309 70
310 14
311 14
312 14
313 14
314 4
315 280
316 14
317 14
318 12
319 140
320 70
321 14
322 14
323 2
324 140
325 14
326 14
327 14
328 14
329 4
330 280
331 140
332 14
333 14
334 12
335 280
336 280
337 70
338 14
339 14
340 2
341 140
342 70
343 14
344 14
345 2
346 140
347 70
348 10
349 140
350 70
351 10
352 280
353 280
354 140
355 70
356 14
357 14
358 12
359 280
360 140
361 70
362 14
363 14
364 14
365 8
366 280
367 140
368 14
369 14
370 12
DEPOT_SECTION
1
-1
EOF