SDVRP instances/custom_instances/p02_27_splitx10_0.sol
369 -7 9 253 252 250 251 29 188 183 184 187 -13 12 10 11 8 220 219 221 225 224 5 6 1 3 2 4 204 -39 36 37 40 38 34 35 181 182 215 214 216 213 212 -50 49 369 366 368 365 367 173 177 176 174 175 82 81 79 83 80 -55 231 233 232 235 237 236 234 163 164 167 165 166 325 326 328 323 327 324 321 320 322 318 319 -66 68 62 63 65 64 67 266 268 267 84 85 88 87 86 -70 299 301 296 300 298 297 135 133 137 132 134 136 131 130 -72 69 24 28 23 352 356 355 353 354 357 -73 71 25 27 26 254 257 258 255 256 198 199 196 197 -94 52 53 54 51 31 33 32 30 349 348 350 358 360 361 362 363 364 359 -98 97 156 157 154 155 21 20 22 19 18 92 89 90 91 276 274 277 275 -105 101 99 104 102 100 103 158 160 162 161 159 -109 111 108 106 110 107 303 304 305 302 351 -121 122 120 96 93 95 179 180 178 -125 128 126 123 129 124 127 139 138 346 347 345 203 202 -142 140 141 14 16 15 17 171 170 169 172 168 228 230 226 229 227 286 290 288 287 289 -144 146 145 143 147 43 42 45 47 48 46 41 44 281 279 282 280 278 -151 153 148 150 152 149 238 56 61 59 60 58 57 333 331 332 329 330 -185 186 115 211 206 207 112 117 113 118 119 208 210 116 114 205 209 223 222 -193 195 191 190 192 194 189 314 317 316 315 344 342 343 340 341 217 218 312 311 310 243 244 241 242 240 239 -200 201 285 284 283 265 263 259 260 261 262 264 -273 271 272 270 269 77 74 78 75 76 249 245 247 248 246 291 295 293 294 292 -307 308 306 313 309 335 337 338 339 336 334 0 





OBJ=
2255.616
BEST_KNOWN=
0.000